p cnf 100 40
x -1 2 3 -4 6 -8 9 -14 16 17 20 21 -23 24 26 -27 -30 -31 -32 33 35 -36 37 -39 40 41 -45 -50 52 54 56 60 61 62 -64 65 66 67 -68 -71 72 73 76 -77 78 81 -86 -87 88 89 -90 -91 -93 94 95 -96 -98 99 0
x -1 2 6 -10 -12 -16 -17 -18 19 -20 -23 28 -29 -31 33 37 42 48 50 -52 55 -57 -58 62 -64 65 68 69 -70 -74 75 -79 -80 81 -85 -86 88 90 -96 97 -98 -99 -100 0
x 3 4 5 8 -10 -13 -15 -16 17 18 23 -32 -34 -36 -39 -40 -43 45 -50 55 -59 61 62 64 -66 69 -70 -74 -76 77 -79 -80 -87 88 -89 94 95 98 99 0
x -3 -4 -6 -7 10 -11 12 -13 -14 15 16 17 -20 21 -22 24 25 26 -28 -29 -31 33 34 -38 39 40 41 42 -43 -47 48 50 -52 54 -55 56 57 59 60 -61 -62 63 64 65 66 67 68 70 -80 81 -85 87 95 96 97 99 0
x -1 3 5 -6 -12 13 14 16 19 22 -24 -26 27 -28 -29 32 -34 -35 38 -39 -40 42 -43 44 -45 -46 50 -53 54 56 -58 61 -62 -63 64 -65 -67 -70 -71 72 73 74 -75 -81 -86 88 89 -92 93 -95 97 0
x 1 -2 3 -5 -6 -8 -13 14 15 -17 18 -19 -20 22 -23 -26 27 -28 31 -37 -38 -39 41 44 -46 -47 48 50 -53 55 56 -60 -62 -64 65 -67 69 77 81 82 -83 -85 -86 88 -90 91 92 94 96 -97 98 99 -100 0
x 2 -3 -4 -6 7 12 19 21 -22 -24 -25 -26 29 30 -31 -32 -33 35 -38 41 -42 -43 44 46 -47 -48 51 53 54 -57 -59 -63 -67 -68 -69 71 72 73 77 -78 -79 -80 -90 93 94 95 -96 97 -98 0
x 1 2 -3 4 -5 -6 9 10 12 -13 14 -18 -19 -20 25 -26 -27 28 29 30 31 32 34 -35 -36 37 38 -39 -44 -47 -49 -52 53 -54 -55 -56 -58 -59 -60 65 66 67 68 -70 71 73 -75 76 78 79 80 82 -83 86 87 -90 -92 -93 99 0
x -5 -6 7 8 -10 11 -12 -13 -14 16 -20 21 24 -27 30 -32 -33 -34 35 39 40 41 43 44 -45 -47 -51 -54 -57 59 60 -61 -63 -64 65 68 71 -73 -77 -80 -81 -89 91 92 93 94 -99 0
x 1 -3 -4 -5 -7 9 -12 14 20 23 26 -27 -28 -29 30 31 -33 34 -35 36 -42 -44 -46 47 49 -51 52 -53 -55 57 -58 59 -60 61 63 65 66 -69 -70 -72 73 74 75 -76 79 -82 83 84 87 89 -90 94 95 -96 -98 0
x -1 2 -3 -4 6 -10 -11 -14 -16 -17 -20 -21 22 23 25 -26 27 30 -31 -32 33 34 -36 37 44 -45 47 -49 -51 -54 58 62 63 64 66 -71 -75 77 -81 83 84 85 86 87 90 91 94 -96 98 -99 0
x 1 2 -3 -4 -5 -6 11 -12 13 17 -18 -20 23 24 25 28 29 -30 -32 -35 -36 37 -38 39 -40 41 42 -44 -45 47 -48 -50 52 53 -54 56 -59 61 -62 -64 -67 -71 -74 -77 -79 -80 81 -82 -84 -87 -88 -89 -90 91 -92 93 94 -95 -96 97 99 0
x 1 4 -5 -6 -9 13 14 -18 20 21 -22 -27 30 31 -32 -35 36 -37 39 40 -46 -47 48 52 53 -54 57 58 59 60 62 68 -69 -72 -73 74 77 -78 79 -84 -87 -91 -97 -98 -99 -100 0
x -3 4 5 7 -11 12 -13 14 -15 -19 20 -22 23 -25 29 31 -32 33 -38 -39 40 42 -45 47 49 53 -55 56 57 59 60 -64 66 -67 -74 -77 82 83 -87 90 91 92 93 -94 -95 97 -100 0
x -2 4 -6 -7 -8 -9 -10 12 16 -17 -21 22 23 26 27 28 36 44 46 -47 48 -49 -50 52 -54 55 56 -59 -62 65 66 67 69 76 -82 -86 87 -88 90 -91 -92 97 98 0
x -1 3 -6 -7 9 -11 12 -13 -14 18 -19 20 -21 23 25 26 28 -30 31 35 -36 -41 -44 46 -50 -56 -58 60 -61 -62 -64 -65 -67 -73 -77 78 -79 81 82 -84 -85 87 -91 -93 -94 95 96 -97 -99 0
x -1 3 6 -7 -8 -11 -12 13 -14 17 -18 21 22 -25 -28 30 34 -35 36 38 -44 46 -47 -48 50 52 -53 55 57 60 -62 63 -65 67 68 -69 -72 73 74 -75 -77 78 -79 -80 -81 -84 -85 -88 90 91 94 97 98 -99 -100 0
x 2 3 -5 -8 9 -11 -12 -15 16 19 -20 21 -25 26 -27 31 34 -39 40 42 -44 -46 47 52 53 -55 57 -58 -61 -62 63 -66 67 72 73 75 76 -77 78 79 82 83 -85 90 93 95 96 -98 0
x -1 -3 4 -6 -10 -11 -17 18 19 -21 -22 23 24 -25 26 27 29 31 34 -35 -36 40 41 -44 46 -47 -48 49 50 -52 53 54 57 -59 -61 63 -65 66 -68 -69 70 71 72 -74 -77 80 -82 -84 -85 86 87 -89 -90 -95 96 97 0
x 2 3 4 -5 7 -9 -10 12 16 17 20 -22 23 -25 -27 29 30 32 -34 35 36 38 41 42 -45 -50 51 -55 -56 -57 62 65 -66 -68 70 72 -76 81 -82 -84 85 -87 -90 91 93 96 0
x -1 -6 8 -10 12 13 16 17 19 20 26 28 -30 -33 -35 36 -38 -39 42 43 44 -45 -46 49 50 -52 -53 -55 -59 60 -61 -62 -63 -64 -65 -66 -71 72 73 76 -78 -79 -80 -81 85 -88 -93 -95 96 97 -98 0
x -3 5 -6 -7 -11 12 13 -16 -17 -20 21 -22 23 25 -27 -28 -33 35 36 38 -42 43 -45 -48 -54 55 -56 -57 -62 -64 65 66 71 -74 75 80 85 90 -92 -95 0
x 3 8 10 -11 12 -13 -15 17 -21 22 -23 -24 -28 29 -35 -36 38 39 -41 -44 45 47 48 -51 53 -54 56 -57 58 -60 -63 66 -68 69 -70 -74 75 78 79 80 -83 86 -89 90 -92 -93 95 96 100 0
x 1 2 -3 -5 7 9 10 -11 -12 -16 -21 24 -26 -27 -31 -32 -34 -36 37 38 43 44 48 -49 51 52 -55 -58 -59 -60 61 -64 69 71 -74 -76 77 79 -83 84 88 89 92 -94 -97 -99 0
x -1 9 -10 11 15 16 17 19 20 -23 29 -32 -37 39 -40 -41 43 45 -46 48 -49 -50 -51 -54 -55 59 -60 -63 -64 -66 68 -69 -70 79 84 -85 87 -88 -92 -93 94 -95 -96 -99 0
x -1 -4 -6 9 -13 14 18 -21 25 -26 29 -30 -31 -33 34 35 -36 37 -42 43 -44 -45 46 -49 50 51 -53 57 -59 -60 62 65 66 -69 -70 -71 73 80 83 -84 -85 -86 -87 88 89 90 91 -93 95 0
x 3 -6 8 -9 -10 -12 -13 -15 -19 -20 21 -22 24 29 -35 37 -38 40 -45 -52 -55 56 59 60 62 63 65 66 67 -69 -70 71 -72 73 75 80 -81 -85 89 90 -92 93 98 99 0
x 1 -4 7 -9 -10 -11 -14 16 -17 -18 -20 21 -22 27 -29 -30 -32 33 35 37 39 41 -42 43 -46 50 -54 57 -58 60 61 62 63 -64 65 67 69 71 -75 76 -79 -81 85 86 -87 -90 95 96 -97 -99 100 0
x -4 -8 13 14 -17 18 21 22 24 25 26 -27 -28 -29 -30 31 -32 -33 37 38 -39 40 42 -43 46 -47 -48 49 50 -51 -52 53 -55 -57 60 61 62 63 64 67 69 -71 -73 -74 75 76 -77 78 79 -81 -85 -87 90 -91 0
x 1 -4 7 11 -13 -16 -18 -19 -21 25 -26 -29 30 32 36 -37 38 -39 42 -43 45 46 -48 51 -53 -54 -56 -58 -62 64 -65 -69 -72 73 74 75 -76 77 -79 80 82 -85 88 89 -91 94 -96 97 99 0
x -6 -8 9 12 13 -14 -15 -16 17 -19 -20 -23 24 -26 -27 -29 33 -35 -36 -39 -43 44 47 -49 -56 57 -58 60 62 -63 64 67 -68 -69 73 -74 75 -76 -77 -78 -79 80 -81 -83 -86 -87 89 -90 -92 -93 -94 96 -97 98 99 -100 0
x 2 -4 9 -10 -12 13 -14 -15 16 -17 18 -20 21 23 -26 27 -29 -31 -33 -37 -38 40 -41 44 45 46 47 50 -52 53 -54 55 -56 -58 -59 61 -63 65 -71 -73 75 -77 -78 -80 82 83 -85 86 89 -90 92 -93 -94 95 -97 -98 99 100 0
x -2 3 4 -5 -8 10 11 -12 13 -14 15 20 -21 -22 -28 29 31 36 -37 -38 40 41 42 -43 44 46 47 48 51 52 53 -55 -56 -57 58 -59 -61 -63 64 65 66 70 77 79 82 83 -85 -87 88 96 0
x -3 -9 -12 -15 -21 26 -29 -30 32 33 -34 36 -38 39 40 46 -47 -48 49 50 51 53 54 56 -58 -66 67 69 70 -73 74 -75 76 -77 79 82 83 -84 -85 -87 -89 91 93 0
x -3 5 -7 -8 9 10 11 -13 15 -16 -17 -18 21 23 -24 -26 -29 30 34 35 36 38 39 -41 -42 -43 -45 46 -49 -52 -53 -55 -56 -58 59 -60 63 -65 -66 -67 -69 -70 72 80 81 -82 84 -85 89 93 -94 -96 97 -98 -99 0
x -2 -3 -4 6 -7 9 -17 18 20 -21 23 -25 26 27 -28 -29 -30 -33 34 -36 37 38 -40 -43 -44 -45 47 48 -49 -53 -54 -55 56 -57 -58 60 -61 -62 -65 67 69 70 71 74 75 77 -79 -80 81 -86 87 89 91 94 95 100 0
x -1 3 4 -8 -11 15 -17 18 -19 -23 24 25 -26 -28 -35 -36 -39 -41 42 45 47 -49 53 56 58 -59 62 63 65 66 67 68 69 -74 77 -78 -79 82 86 -87 -89 90 -92 94 -95 98 100 0
x 1 2 3 6 8 9 10 -11 12 13 -18 -19 -20 21 22 24 -25 -26 27 -29 30 31 33 -34 35 -36 -37 -38 -41 42 43 -44 -45 49 -50 52 -54 -56 58 -59 62 -64 65 66 70 -77 80 82 83 86 -87 -92 93 -94 95 97 -98 0
x 1 -3 5 6 -8 12 -13 -14 17 -22 23 24 -25 -28 32 -33 -34 35 38 -39 -40 -42 -44 46 -47 48 49 -53 -57 59 61 -65 66 70 -71 72 -73 -74 -75 76 78 -82 -83 -84 -85 -86 -89 -90 92 -93 -96 -97 98 0
x -1 -2 7 -8 -10 11 -12 15 -16 19 20 -23 24 25 -28 29 33 37 42 43 44 -49 -52 56 -57 58 -59 60 63 64 66 -67 68 69 70 71 75 76 80 81 82 84 -86 -87 89 90 91 -92 -95 96 -97 98 99 100 0
g -20